outputs/r205.txt.out
filename: R205
Vehicles: 25, Capacity: 1000
Total customers : 101
No of routes: 26
Route #1: 28 53 58
Route #2: 40 26
Route #3: 12 80 68 77
Route #4: 3 79 78 34
Route #5: 33 81 51 9 71 35
Route #6: 76 65 50 1
Route #7: 69 29 24 25 55 54
Route #8: 21 73 72 74
Route #9: 75 56 4
Route #10: 39 67 23 22 41 13
Route #11: 94 6 89
Route #12: 95 97 87
Route #13: 2 57
Route #14: 15 43
Route #15: 92 42 100 37
Route #16: 99 59 98 93
Route #17: 85 91
Route #18: 61 16 44 14 38 86 96
Route #19: 5 84 17 60
Route #20: 83 8 46
Route #21: 45 82 7 19 11 62 88 10 90 32
Route #22: 31 63 70
Route #23: 30 20 66 48
Route #24: 47 36 49
Route #25: 18 64 52
Route #26: 27
Cost 1798
